presolving:
   (0.4s) running MILP presolver
   (0.5s) MILP presolver found nothing
(round 1, exhaustive) 0 del vars, 0 del conss, 0 add conss, 1 chg bounds, 0 chg sides, 0 chg coeffs, 69620 upgd conss, 0 impls, 69620 clqs
   (1.3s) sparsify finished: 122640/298521 (41.1%) nonzeros canceled - in total 122640 canceled nonzeros, 122640 changed coefficients, 0 added nonzeros
(round 2, exhaustive) 0 del vars, 0 del conss, 0 add conss, 1 chg bounds, 0 chg sides, 122640 chg coeffs, 69620 upgd conss, 0 impls, 69620 clqs
(round 3, fast)       0 del vars, 741 del conss, 0 add conss, 7 chg bounds, 0 chg sides, 122640 chg coeffs, 69620 upgd conss, 0 impls, 69620 clqs
   (2.0s) probing: 51/17570 (0.3%) - 0 fixings, 0 aggregations, 0 implications, 0 bound changes
   (2.0s) probing aborted: 50/50 successive totally useless probings
   (2.0s) symmetry computation started: requiring (bin +, int -, cont +), (fixed: bin -, int +, cont -)
   (3.5s) symmetry computation finished: 69 generators found (max: 1500, log10 of symmetry group size: 100.1)
(round 4, exhaustive) 2459 del vars, 741 del conss, 1 add conss, 7 chg bounds, 0 chg sides, 122640 chg coeffs, 69620 upgd conss, 0 impls, 44074 clqs
(round 5, fast)       2503 del vars, 26288 del conss, 1 add conss, 7 chg bounds, 0 chg sides, 122640 chg coeffs, 69620 upgd conss, 0 impls, 44073 clqs
(round 6, fast)       2573 del vars, 26383 del conss, 1 add conss, 7 chg bounds, 0 chg sides, 122640 chg coeffs, 69620 upgd conss, 0 impls, 43978 clqs
   (3.6s) probing: 58/17570 (0.3%) - 0 fixings, 0 aggregations, 0 implications, 0 bound changes
   (3.6s) probing aborted: 50/50 successive totally useless probings
presolving (7 rounds: 7 fast, 4 medium, 4 exhaustive):
 2573 deleted vars, 26384 deleted constraints, 1 added constraints, 7 tightened bounds, 0 added holes, 0 changed sides, 122640 changed coefficients
 0 implications, 43978 cliques
presolved problem has 15041 variables (15041 bin, 0 int, 0 impl, 0 cont) and 43978 constraints
  43977 constraints of type <setppc>
      1 constraints of type <orbitope>
transformed objective value is always integral (scale: 1)
Presolving Time: 3.52

 time | node  | left  |LP iter|LP it/n|mem/heur|mdpt |vars |cons |rows |cuts |sepa|confs|strbr|  dualbound   | primalbound  |  gap   | compl. 
p 3.8s|     1 |     0 |     0 |     - |  clique|   0 |  15k|  43k|  43k|   0 |  0 |   0 |   0 | 5.000000e+00 | 1.200000e+01 | 140.00%| unknown
p 4.0s|     1 |     0 |   366 |     - | vbounds|   0 |  15k|  43k|  43k|   0 |  0 |   7 |   0 | 5.000000e+00 | 1.100000e+01 | 120.00%| unknown
p 4.1s|     1 |     0 |   366 |     - | vbounds|   0 |  15k|  43k|  43k|   0 |  0 |   8 |   0 | 5.000000e+00 | 1.000000e+01 | 100.00%| unknown
  8.5s|     1 |     0 | 15391 |     - |   428M |   0 |  15k|  43k|  43k|   0 |  0 |  21 |   0 | 6.000000e+00 | 1.000000e+01 |  66.67%| unknown
 10.0s|     1 |     0 | 15495 |     - |   435M |   0 |  15k|  44k|  43k|   5 |  1 |  23 |   0 | 6.066667e+00 | 1.000000e+01 |  64.84%| unknown
 12.0s|     1 |     0 | 15595 |     - |   440M |   0 |  15k|  44k|  43k|  10 |  2 |  30 |   0 | 6.266667e+00 | 1.000000e+01 |  59.57%| unknown
 13.3s|     1 |     0 | 16611 |     - |   445M |   0 |  15k|  44k|  43k|  17 |  3 |  31 |   0 | 7.000000e+00 | 1.000000e+01 |  42.86%| unknown
 14.7s|     1 |     0 | 17261 |     - |   450M |   0 |  15k|  44k|  44k|  24 |  4 |  32 |   0 | 7.000000e+00 | 1.000000e+01 |  42.86%| unknown
 15.5s|     1 |     0 | 17637 |     - |   454M |   0 |  15k|  44k|  44k|  30 |  5 |  33 |   0 | 7.000000e+00 | 1.000000e+01 |  42.86%| unknown
 16.5s|     1 |     0 | 18660 |     - |   459M |   0 |  15k|  44k|  44k|  36 |  6 |  35 |   0 | 7.000000e+00 | 1.000000e+01 |  42.86%| unknown
 17.5s|     1 |     0 | 19156 |     - |   466M |   0 |  15k|  44k|  44k|  44 |  7 |  40 |   0 | 7.000000e+00 | 1.000000e+01 |  42.86%| unknown
 18.8s|     1 |     0 | 20737 |     - |   472M |   0 |  15k|  44k|  44k|  52 |  8 |  44 |   0 | 7.000000e+00 | 1.000000e+01 |  42.86%| unknown
 21.4s|     1 |     0 | 23022 |     - |   477M |   0 |  15k|  44k|  44k|  58 |  9 |  45 |   0 | 7.000000e+00 | 1.000000e+01 |  42.86%| unknown
 23.2s|     1 |     0 | 26281 |     - |   483M |   0 |  15k|  44k|  44k|  62 | 10 |  46 |   0 | 7.000000e+00 | 1.000000e+01 |  42.86%| unknown
 25.9s|     1 |     0 | 32313 |     - |   487M |   0 |  15k|  44k|  44k|  72 | 11 |  47 |   0 | 7.000000e+00 | 1.000000e+01 |  42.86%| unknown
 time | node  | left  |LP iter|LP it/n|mem/heur|mdpt |vars |cons |rows |cuts |sepa|confs|strbr|  dualbound   | primalbound  |  gap   | compl. 
 27.4s|     1 |     0 | 35326 |     - |   491M |   0 |  15k|  44k|  44k|  78 | 12 |  48 |   0 | 7.000000e+00 | 1.000000e+01 |  42.86%| unknown
 30.6s|     1 |     0 | 41614 |     - |   496M |   0 |  15k|  44k|  44k|  89 | 13 |  49 |   0 | 7.000000e+00 | 1.000000e+01 |  42.86%| unknown
 44.0s|     1 |     0 | 96116 |     - |   498M |   0 |  15k|  43k|  44k|  89 | 13 |  54 |  20 | 7.233333e+00 | 1.000000e+01 |  38.25%| unknown
 44.1s|     1 |     0 | 96793 |     - |   502M |   0 |  15k|  43k|  44k|  95 | 14 |  55 |  20 | 7.253333e+00 | 1.000000e+01 |  37.87%| unknown
 44.4s|     1 |     0 | 97965 |     - |   502M |   0 |  15k|  43k|  44k|  99 | 15 |  56 |  20 | 7.333333e+00 | 1.000000e+01 |  36.36%| unknown
 46.7s|     1 |     0 |110228 |     - |   502M |   0 |  15k|  43k|  44k|  99 | 15 |  59 |  40 | 7.500000e+00 | 1.000000e+01 |  33.33%| unknown
 46.8s|     1 |     0 |110506 |     - |   506M |   0 |  15k|  43k|  44k| 108 | 16 |  60 |  40 | 7.500000e+00 | 1.000000e+01 |  33.33%| unknown
 47.1s|     1 |     0 |111983 |     - |   506M |   0 |  15k|  43k|  44k| 114 | 17 |  61 |  40 | 7.666667e+00 | 1.000000e+01 |  30.43%| unknown
 50.3s|     1 |     0 |121746 |     - |   506M |   0 |  15k|  43k|  44k| 114 | 17 |  62 |  61 | 8.000000e+00 | 1.000000e+01 |  25.00%| unknown
 50.8s|     1 |     0 |123434 |     - |   510M |   0 |  15k|  43k|  44k| 123 | 18 |  63 |  61 | 8.000000e+00 | 1.000000e+01 |  25.00%| unknown
 51.0s|     1 |     0 |124103 |     - |   510M |   0 |  15k|  43k|  44k| 127 | 19 |  64 |  61 | 8.000000e+00 | 1.000000e+01 |  25.00%| unknown
 57.2s|     1 |     2 |132751 |     - |   510M |   0 |  15k|  43k|  44k| 127 | 19 |  66 |  80 | 8.000000e+00 | 1.000000e+01 |  25.00%| unknown
d65.0s|    20 |     1 |181300 |5806.3 |veclendi|   6 |  15k|  29k|  44k|   0 |  1 |  87 |  80 | 8.000000e+00 | 9.000000e+00 |  12.50%|  83.57%

SCIP Status        : problem is solved [optimal solution found]
Solving Time (sec) : 65.04
Solving Nodes      : 21
Primal Bound       : +9.00000000000000e+00 (4 solutions)
Dual Bound         : +9.00000000000000e+00
Gap                : 0.00 %
Solve Status: optimal
Solve Time: 65.06 seconds
